32      4       
10      10      10      10      
0       0       0       0       0       7       2       4       5       6       7       8       9       
8       1       1       1       0       2       3       10      
1       9       0       3       1       3       11      12      14      
9       4       7       2       0       3       10      12      14      
1       0       4       5       6       3       10      12      13      
8       0       3       5       6       2       11      12      
5       4       3       4       0       2       12      13      
10      3       3       0       2       3       14      15      16      
1       4       6       6       0       3       14      15      16      
4       0       6       1       1       3       15      16      17      
7       0       2       5       3       2       13      16      
6       0       4       2       6       3       16      17      21      
3       3       0       7       6       3       15      18      23      
10      7       2       3       0       4       17      19      20      21      
8       5       4       4       0       4       19      20      21      25      
5       2       4       0       4       2       18      25      
8       3       0       4       6       5       22      23      24      25      26      
4       6       6       0       4       2       19      20      
2       0       4       4       2       3       22      24      26      
9       0       4       4       6       2       26      31      
7       3       0       2       3       1       24      
6       6       0       6       4       3       28      30      31      
8       0       5       2       3       3       28      30      31      
2       2       0       3       2       2       27      30      
2       0       4       4       9       2       27      30      
7       2       3       5       0       2       28      30      
3       0       5       3       3       2       29      31      
10      3       0       3       5       1       29      
9       7       2       0       2       1       32      
6       0       6       6       3       1       32      
1       2       0       10      5       1       32      
0       0       0       0       0       0       
